-426.0 4.0 6.0 10.0 0.0 7.0 10.0 6.0 10.0 7.0 5.0 10.0 0.0 3.0 3.0 0.0 4.0 1.0 1.0 6.0 6.0 10.0 4.0 4.0 1.0 6.0 1.0 4.0 8.0 4.0 10.0 9.0 4.0 4.0 2.0 10.0 4.0 0.0 2.0 10.0 8.0 4.0 0.0 0.0 3.0 4.0 5.0 5.0 0.0 3.0 1.0 5.0 8.0 5.0 1.0 4.0 4.0 0.0 9.0 7.0 5.0 0.0 3.0 2.0 0.0 9.0 1.0 0.0 3.0 7.0 7.0 0.0 2.0 7.0 10.0 3.0 3.0 0.0 2.0 0.0 10.0 5.0 8.0 3.0 4.0 2.0 5.0 9.0 2.0 2.0 1.0 2.0 10.0 1.0 8.0 7.0 4.0 7.0 
4.0 -445.0 9.0 8.0 5.0 2.0 5.0 6.0 1.0 4.0 7.0 3.0 1.0 10.0 1.0 6.0 7.0 5.0 5.0 10.0 8.0 5.0 2.0 9.0 2.0 6.0 6.0 4.0 5.0 3.0 10.0 7.0 2.0 8.0 9.0 3.0 5.0 7.0 8.0 3.0 5.0 7.0 4.0 4.0 6.0 3.0 7.0 6.0 8.0 5.0 8.0 4.0 7.0 9.0 3.0 6.0 8.0 8.0 8.0 7.0 2.0 3.0 5.0 4.0 10.0 9.0 9.0 5.0 2.0 1.0 10.0 3.0 8.0 2.0 1.0 2.0 9.0 4.0 4.0 5.0 8.0 5.0 0.0 0.0 0.0 0.0 0.0 0.0 0.0 0.0 0.0 0.0 0.0 0.0 0.0 0.0 0.0 0.0 
6.0 9.0 -508.0 7.0 1.0 7.0 8.0 1.0 1.0 8.0 2.0 3.0 10.0 7.0 0.0 7.0 5.0 5.0 5.0 8.0 4.0 4.0 6.0 7.0 7.0 0.0 1.0 5.0 0.0 4.0 3.0 5.0 4.0 8.0 9.0 4.0 8.0 4.0 9.0 10.0 3.0 7.0 3.0 8.0 6.0 10.0 9.0 2.0 4.0 8.0 5.0 8.0 8.0 7.0 4.0 3.0 1.0 2.0 8.0 9.0 6.0 5.0 2.0 3.0 1.0 9.0 6.0 6.0 8.0 4.0 10.0 5.0 5.0 8.0 9.0 2.0 5.0 4.0 5.0 4.0 6.0 7.0 9.0 3.0 1.0 9.0 1.0 2.0 5.0 7.0 6.0 1.0 3.0 8.0 9.0 4.0 0.0 3.0 
10.0 8.0 7.0 -534.0 4.0 0.0 2.0 4.0 8.0 0.0 6.0 10.0 6.0 0.0 0.0 9.0 8.0 4.0 10.0 4.0 0.0 7.0 1.0 8.0 4.0 8.0 5.0 5.0 7.0 10.0 7.0 9.0 6.0 9.0 1.0 3.0 8.0 1.0 3.0 7.0 10.0 9.0 5.0 2.0 4.0 5.0 8.0 5.0 1.0 4.0 2.0 9.0 9.0 7.0 9.0 7.0 7.0 4.0 4.0 7.0 9.0 10.0 10.0 3.0 2.0 1.0 7.0 10.0 6.0 8.0 8.0 0.0 4.0 5.0 3.0 2.0 7.0 7.0 7.0 10.0 1.0 0.0 8.0 4.0 8.0 5.0 6.0 1.0 6.0 1.0 10.0 1.0 10.0 5.0 7.0 3.0 8.0 4.0 
0.0 5.0 1.0 4.0 -529.0 10.0 10.0 6.0 6.0 6.0 9.0 10.0 5.0 10.0 8.0 7.0 9.0 2.0 10.0 5.0 3.0 6.0 10.0 1.0 5.0 4.0 2.0 5.0 3.0 3.0 2.0 5.0 2.0 4.0 10.0 8.0 1.0 7.0 10.0 1.0 4.0 0.0 10.0 10.0 6.0 5.0 2.0 4.0 1.0 4.0 4.0 2.0 8.0 8.0 6.0 3.0 5.0 0.0 5.0 5.0 7.0 7.0 9.0 10.0 4.0 7.0 7.0 8.0 8.0 1.0 6.0 1.0 8.0 2.0 5.0 8.0 0.0 9.0 1.0 5.0 10.0 4.0 8.0 7.0 5.0 2.0 9.0 9.0 2.0 7.0 3.0 9.0 0.0 9.0 7.0 6.0 4.0 8.0 
7.0 2.0 7.0 0.0 10.0 -513.0 4.0 7.0 5.0 1.0 0.0 1.0 10.0 8.0 5.0 4.0 1.0 9.0 2.0 6.0 0.0 1.0 9.0 10.0 8.0 6.0 7.0 2.0 2.0 10.0 1.0 10.0 4.0 5.0 7.0 10.0 7.0 5.0 4.0 2.0 4.0 9.0 4.0 6.0 8.0 5.0 6.0 7.0 8.0 1.0 7.0 0.0 3.0 4.0 7.0 3.0 9.0 0.0 9.0 10.0 3.0 5.0 1.0 3.0 1.0 8.0 2.0 4.0 7.0 5.0 2.0 5.0 3.0 7.0 0.0 8.0 10.0 9.0 6.0 0.0 5.0 8.0 10.0 7.0 1.0 10.0 8.0 2.0 5.0 4.0 1.0 8.0 8.0 8.0 1.0 10.0 10.0 9.0 
10.0 5.0 8.0 2.0 10.0 4.0 -503.0 2.0 6.0 10.0 9.0 6.0 7.0 0.0 7.0 9.0 5.0 4.0 4.0 7.0 8.0 0.0 10.0 8.0 3.0 10.0 7.0 0.0 4.0 10.0 0.0 10.0 8.0 0.0 6.0 5.0 3.0 4.0 8.0 10.0 2.0 8.0 1.0 4.0 10.0 9.0 10.0 3.0 9.0 0.0 1.0 10.0 3.0 3.0 6.0 6.0 7.0 5.0 4.0 8.0 1.0 2.0 5.0 6.0 9.0 6.0 8.0 4.0 8.0 1.0 0.0 3.0 5.0 10.0 7.0 1.0 2.0 0.0 4.0 9.0 3.0 0.0 3.0 3.0 6.0 5.0 5.0 0.0 5.0 7.0 2.0 1.0 3.0 6.0 7.0 6.0 7.0 5.0 
6.0 6.0 1.0 4.0 6.0 7.0 2.0 -479.0 2.0 3.0 8.0 4.0 10.0 1.0 1.0 3.0 2.0 8.0 5.0 3.0 8.0 5.0 2.0 0.0 2.0 9.0 6.0 4.0 10.0 8.0 10.0 7.0 9.0 5.0 8.0 7.0 2.0 4.0 1.0 3.0 7.0 0.0 1.0 8.0 2.0 4.0 4.0 7.0 6.0 5.0 1.0 3.0 6.0 3.0 2.0 8.0 7.0 9.0 10.0 2.0 6.0 8.0 7.0 6.0 4.0 3.0 10.0 0.0 9.0 5.0 10.0 5.0 6.0 8.0 8.0 7.0 8.0 1.0 8.0 5.0 5.0 0.0 1.0 4.0 3.0 7.0 1.0 0.0 8.0 5.0 7.0 6.0 0.0 5.0 3.0 2.0 10.0 1.0 
10.0 1.0 1.0 8.0 6.0 5.0 6.0 2.0 -473.0 4.0 4.0 1.0 2.0 6.0 5.0 6.0 10.0 5.0 10.0 1.0 1.0 6.0 9.0 6.0 4.0 1.0 8.0 10.0 6.0 3.0 9.0 4.0 5.0 2.0 1.0 8.0 8.0 8.0 0.0 8.0 2.0 9.0 4.0 0.0 10.0 8.0 3.0 0.0 7.0 4.0 0.0 0.0 10.0 5.0 6.0 9.0 3.0 4.0 5.0 3.0 7.0 9.0 5.0 1.0 4.0 2.0 2.0 2.0 9.0 2.0 5.0 9.0 4.0 2.0 6.0 5.0 4.0 6.0 1.0 4.0 10.0 2.0 9.0 2.0 10.0 9.0 8.0 1.0 2.0 10.0 0.0 4.0 5.0 4.0 2.0 8.0 4.0 2.0 
7.0 4.0 8.0 0.0 6.0 1.0 10.0 3.0 4.0 -453.0 10.0 2.0 2.0 4.0 7.0 5.0 5.0 6.0 7.0 1.0 0.0 2.0 4.0 0.0 2.0 7.0 4.0 7.0 8.0 2.0 7.0 10.0 5.0 7.0 7.0 9.0 9.0 7.0 2.0 0.0 3.0 7.0 1.0 5.0 2.0 3.0 4.0 5.0 6.0 6.0 3.0 0.0 0.0 7.0 7.0 1.0 0.0 4.0 7.0 8.0 7.0 2.0 4.0 0.0 4.0 4.0 6.0 8.0 7.0 4.0 7.0 8.0 1.0 1.0 0.0 7.0 7.0 3.0 3.0 2.0 4.0 5.0 5.0 7.0 1.0 3.0 2.0 8.0 6.0 0.0 9.0 10.0 9.0 10.0 8.0 10.0 0.0 1.0 
5.0 7.0 2.0 6.0 9.0 0.0 9.0 8.0 4.0 10.0 -474.0 7.0 8.0 2.0 3.0 9.0 6.0 1.0 8.0 0.0 0.0 7.0 2.0 3.0 1.0 2.0 3.0 6.0 4.0 8.0 2.0 2.0 8.0 9.0 0.0 2.0 7.0 1.0 5.0 5.0 7.0 9.0 1.0 4.0 8.0 9.0 9.0 2.0 6.0 8.0 6.0 7.0 10.0 6.0 9.0 9.0 0.0 4.0 3.0 6.0 7.0 0.0 2.0 10.0 2.0 6.0 1.0 0.0 9.0 10.0 6.0 5.0 2.0 1.0 1.0 10.0 4.0 5.0 1.0 5.0 2.0 4.0 4.0 9.0 9.0 4.0 4.0 1.0 6.0 2.0 0.0 1.0 1.0 0.0 9.0 10.0 7.0 10.0 
10.0 3.0 3.0 10.0 10.0 1.0 6.0 4.0 1.0 2.0 7.0 -510.0 1.0 9.0 1.0 8.0 9.0 8.0 2.0 10.0 5.0 5.0 5.0 3.0 4.0 3.0 4.0 0.0 4.0 1.0 10.0 4.0 8.0 9.0 9.0 1.0 7.0 8.0 0.0 6.0 2.0 3.0 1.0 10.0 8.0 0.0 7.0 8.0 0.0 4.0 2.0 1.0 9.0 10.0 10.0 2.0 7.0 1.0 0.0 10.0 9.0 0.0 8.0 9.0 8.0 5.0 6.0 2.0 6.0 6.0 9.0 1.0 3.0 9.0 0.0 8.0 3.0 2.0 0.0 5.0 6.0 1.0 3.0 9.0 7.0 4.0 4.0 1.0 4.0 10.0 5.0 10.0 9.0 6.0 9.0 9.0 9.0 9.0 
0.0 1.0 10.0 6.0 5.0 10.0 7.0 10.0 2.0 2.0 8.0 1.0 -482.0 4.0 3.0 9.0 7.0 0.0 6.0 3.0 8.0 0.0 7.0 3.0 1.0 10.0 6.0 3.0 7.0 4.0 8.0 7.0 8.0 3.0 10.0 10.0 3.0 4.0 0.0 1.0 1.0 0.0 4.0 0.0 9.0 1.0 3.0 9.0 5.0 2.0 6.0 9.0 0.0 2.0 10.0 0.0 10.0 9.0 5.0 2.0 7.0 1.0 10.0 6.0 3.0 0.0 2.0 5.0 10.0 5.0 8.0 6.0 2.0 10.0 8.0 10.0 5.0 1.0 10.0 8.0 5.0 4.0 9.0 9.0 0.0 7.0 6.0 6.0 2.0 1.0 5.0 0.0 9.0 2.0 3.0 6.0 6.0 1.0 
3.0 10.0 7.0 0.0 10.0 8.0 0.0 1.0 6.0 4.0 2.0 9.0 4.0 -532.0 8.0 9.0 7.0 0.0 4.0 7.0 10.0 10.0 4.0 4.0 7.0 9.0 1.0 9.0 5.0 1.0 9.0 8.0 7.0 7.0 5.0 3.0 7.0 1.0 5.0 6.0 1.0 3.0 1.0 7.0 0.0 1.0 4.0 7.0 9.0 4.0 8.0 7.0 9.0 4.0 0.0 6.0 10.0 3.0 9.0 4.0 1.0 7.0 5.0 9.0 3.0 6.0 10.0 4.0 10.0 9.0 0.0 6.0 4.0 1.0 6.0 9.0 2.0 10.0 10.0 6.0 2.0 8.0 1.0 7.0 7.0 2.0 1.0 7.0 8.0 9.0 7.0 9.0 0.0 5.0 5.0 9.0 4.0 9.0 
3.0 1.0 0.0 0.0 8.0 5.0 7.0 1.0 5.0 7.0 3.0 1.0 3.0 8.0 -413.0 1.0 4.0 7.0 3.0 10.0 1.0 6.0 2.0 0.0 6.0 5.0 9.0 5.0 3.0 5.0 5.0 0.0 1.0 9.0 2.0 4.0 10.0 8.0 6.0 4.0 5.0 7.0 7.0 2.0 7.0 2.0 4.0 3.0 0.0 1.0 8.0 2.0 1.0 3.0 0.0 4.0 6.0 2.0 9.0 1.0 2.0 7.0 2.0 3.0 4.0 5.0 10.0 4.0 4.0 6.0 6.0 0.0 2.0 9.0 6.0 2.0 5.0 1.0 7.0 5.0 1.0 6.0 5.0 6.0 0.0 1.0 9.0 3.0 9.0 0.0 4.0 6.0 5.0 8.0 0.0 9.0 1.0 8.0 
0.0 6.0 7.0 9.0 7.0 4.0 9.0 3.0 6.0 5.0 9.0 8.0 9.0 9.0 1.0 -531.0 0.0 1.0 2.0 3.0 6.0 1.0 0.0 0.0 0.0 2.0 6.0 2.0 6.0 3.0 3.0 7.0 3.0 9.0 10.0 5.0 4.0 0.0 1.0 4.0 2.0 10.0 3.0 2.0 5.0 8.0 6.0 8.0 5.0 8.0 8.0 8.0 6.0 5.0 5.0 8.0 10.0 8.0 7.0 9.0 5.0 8.0 8.0 2.0 3.0 6.0 6.0 2.0 8.0 2.0 9.0 10.0 2.0 9.0 9.0 7.0 3.0 6.0 9.0 5.0 3.0 4.0 10.0 2.0 4.0 8.0 8.0 7.0 10.0 5.0 8.0 7.0 7.0 9.0 3.0 5.0 8.0 3.0 
4.0 7.0 5.0 8.0 9.0 1.0 5.0 2.0 10.0 5.0 6.0 9.0 7.0 7.0 4.0 0.0 -504.0 3.0 0.0 8.0 1.0 8.0 0.0 4.0 9.0 10.0 4.0 9.0 8.0 1.0 4.0 2.0 4.0 0.0 5.0 7.0 7.0 2.0 6.0 8.0 1.0 4.0 9.0 10.0 7.0 0.0 0.0 1.0 1.0 10.0 0.0 6.0 6.0 7.0 4.0 6.0 5.0 7.0 5.0 8.0 1.0 8.0 4.0 1.0 8.0 10.0 7.0 4.0 4.0 3.0 6.0 3.0 9.0 9.0 8.0 10.0 7.0 1.0 8.0 7.0 2.0 7.0 5.0 10.0 8.0 8.0 2.0 8.0 3.0 0.0 5.0 9.0 0.0 0.0 4.0 6.0 9.0 4.0 
1.0 5.0 5.0 4.0 2.0 9.0 4.0 8.0 5.0 6.0 1.0 8.0 0.0 0.0 7.0 1.0 3.0 -463.0 1.0 0.0 7.0 5.0 4.0 3.0 8.0 6.0 1.0 3.0 4.0 7.0 4.0 4.0 2.0 4.0 10.0 1.0 0.0 6.0 2.0 1.0 2.0 1.0 10.0 10.0 10.0 2.0 10.0 2.0 2.0 6.0 2.0 4.0 2.0 10.0 3.0 10.0 1.0 9.0 8.0 9.0 3.0 10.0 5.0 2.0 8.0 8.0 6.0 6.0 8.0 6.0 4.0 3.0 4.0 7.0 4.0 7.0 4.0 9.0 9.0 6.0 0.0 9.0 10.0 2.0 3.0 0.0 2.0 10.0 6.0 3.0 7.0 7.0 1.0 2.0 2.0 5.0 1.0 9.0 
1.0 5.0 5.0 10.0 10.0 2.0 4.0 5.0 10.0 7.0 8.0 2.0 6.0 4.0 3.0 2.0 0.0 1.0 -477.0 5.0 9.0 6.0 4.0 0.0 10.0 2.0 8.0 5.0 5.0 8.0 2.0 3.0 10.0 1.0 7.0 9.0 8.0 4.0 7.0 1.0 3.0 6.0 0.0 5.0 2.0 1.0 7.0 8.0 7.0 2.0 1.0 10.0 7.0 4.0 9.0 1.0 8.0 10.0 8.0 7.0 4.0 1.0 6.0 9.0 5.0 0.0 1.0 3.0 10.0 0.0 7.0 10.0 2.0 1.0 1.0 8.0 5.0 4.0 9.0 2.0 4.0 7.0 3.0 10.0 7.0 1.0 0.0 8.0 2.0 0.0 2.0 7.0 10.0 4.0 3.0 3.0 4.0 9.0 
6.0 10.0 8.0 4.0 5.0 6.0 7.0 3.0 1.0 1.0 0.0 10.0 3.0 7.0 10.0 3.0 8.0 0.0 5.0 -499.0 3.0 3.0 9.0 3.0 9.0 9.0 3.0 5.0 5.0 5.0 1.0 6.0 9.0 0.0 4.0 2.0 0.0 5.0 5.0 3.0 5.0 6.0 10.0 7.0 5.0 8.0 8.0 7.0 3.0 7.0 2.0 8.0 5.0 1.0 3.0 6.0 8.0 5.0 10.0 2.0 6.0 0.0 2.0 5.0 7.0 3.0 5.0 10.0 3.0 8.0 7.0 5.0 8.0 0.0 4.0 9.0 5.0 7.0 8.0 10.0 5.0 9.0 4.0 0.0 3.0 5.0 4.0 10.0 9.0 7.0 3.0 2.0 8.0 5.0 0.0 1.0 10.0 0.0 
6.0 8.0 4.0 0.0 3.0 0.0 8.0 8.0 1.0 0.0 0.0 5.0 8.0 10.0 1.0 6.0 1.0 7.0 9.0 3.0 -487.0 0.0 4.0 3.0 0.0 6.0 10.0 3.0 4.0 4.0 6.0 2.0 8.0 10.0 9.0 10.0 9.0 9.0 9.0 4.0 2.0 4.0 5.0 10.0 0.0 3.0 6.0 6.0 10.0 2.0 1.0 1.0 8.0 7.0 10.0 7.0 10.0 0.0 3.0 10.0 9.0 10.0 0.0 2.0 8.0 9.0 1.0 9.0 0.0 1.0 5.0 9.0 2.0 2.0 1.0 3.0 0.0 5.0 7.0 3.0 0.0 5.0 5.0 3.0 4.0 5.0 2.0 4.0 9.0 10.0 8.0 10.0 9.0 7.0 9.0 0.0 6.0 2.0 
10.0 5.0 4.0 7.0 6.0 1.0 0.0 5.0 6.0 2.0 7.0 5.0 0.0 10.0 6.0 1.0 8.0 5.0 6.0 3.0 0.0 -510.0 7.0 8.0 5.0 5.0 6.0 6.0 1.0 2.0 4.0 7.0 4.0 0.0 10.0 9.0 0.0 6.0 8.0 2.0 4.0 10.0 10.0 5.0 5.0 6.0 9.0 5.0 9.0 4.0 9.0 9.0 8.0 7.0 8.0 2.0 1.0 0.0 0.0 5.0 5.0 2.0 7.0 6.0 4.0 7.0 9.0 4.0 7.0 2.0 2.0 8.0 10.0 6.0 8.0 2.0 1.0 6.0 8.0 4.0 3.0 0.0 1.0 3.0 7.0 6.0 3.0 10.0 7.0 3.0 8.0 9.0 8.0 10.0 5.0 6.0 9.0 1.0 
4.0 2.0 6.0 1.0 10.0 9.0 10.0 2.0 9.0 4.0 2.0 5.0 7.0 4.0 2.0 0.0 0.0 4.0 4.0 9.0 4.0 7.0 -490.0 0.0 5.0 0.0 5.0 8.0 10.0 2.0 1.0 8.0 1.0 10.0 7.0 9.0 8.0 1.0 6.0 2.0 9.0 1.0 8.0 9.0 9.0 10.0 3.0 0.0 9.0 9.0 5.0 9.0 0.0 0.0 1.0 7.0 9.0 5.0 4.0 0.0 0.0 0.0 10.0 7.0 3.0 9.0 1.0 0.0 9.0 5.0 7.0 5.0 6.0 9.0 7.0 6.0 3.0 9.0 0.0 2.0 7.0 3.0 6.0 3.0 5.0 3.0 3.0 1.0 10.0 3.0 7.0 3.0 5.0 8.0 9.0 8.0 5.0 8.0 
4.0 9.0 7.0 8.0 1.0 10.0 8.0 0.0 6.0 0.0 3.0 3.0 3.0 4.0 0.0 0.0 4.0 3.0 0.0 3.0 3.0 8.0 0.0 -476.0 9.0 1.0 5.0 7.0 10.0 4.0 10.0 5.0 2.0 6.0 7.0 2.0 3.0 4.0 2.0 6.0 4.0 4.0 3.0 4.0 5.0 10.0 9.0 3.0 7.0 6.0 0.0 2.0 10.0 3.0 8.0 2.0 9.0 9.0 2.0 2.0 10.0 3.0 7.0 8.0 4.0 1.0 7.0 0.0 5.0 5.0 6.0 4.0 4.0 10.0 8.0 10.0 6.0 6.0 5.0 6.0 9.0 4.0 4.0 6.0 8.0 1.0 4.0 5.0 2.0 7.0 5.0 0.0 5.0 2.0 9.0 1.0 8.0 9.0 
1.0 2.0 7.0 4.0 5.0 8.0 3.0 2.0 4.0 2.0 1.0 4.0 1.0 7.0 6.0 0.0 9.0 8.0 10.0 9.0 0.0 5.0 5.0 9.0 -476.0 0.0 9.0 4.0 8.0 2.0 3.0 7.0 7.0 0.0 4.0 10.0 7.0 1.0 3.0 10.0 1.0 7.0 4.0 10.0 3.0 3.0 7.0 8.0 10.0 3.0 1.0 7.0 5.0 3.0 4.0 10.0 7.0 2.0 9.0 3.0 10.0 9.0 7.0 8.0 6.0 6.0 4.0 0.0 8.0 4.0 3.0 6.0 6.0 0.0 7.0 5.0 7.0 0.0 5.0 8.0 7.0 10.0 5.0 8.0 0.0 0.0 0.0 5.0 10.0 0.0 1.0 10.0 2.0 0.0 1.0 7.0 6.0 1.0 
6.0 6.0 0.0 8.0 4.0 6.0 10.0 9.0 1.0 7.0 2.0 3.0 10.0 9.0 5.0 2.0 10.0 6.0 2.0 9.0 6.0 5.0 0.0 1.0 0.0 -468.0 0.0 10.0 4.0 9.0 6.0 4.0 0.0 0.0 4.0 8.0 0.0 4.0 7.0 2.0 8.0 8.0 0.0 0.0 10.0 4.0 8.0 1.0 3.0 5.0 8.0 2.0 6.0 9.0 0.0 6.0 5.0 0.0 7.0 5.0 4.0 1.0 2.0 7.0 6.0 6.0 5.0 10.0 6.0 6.0 10.0 1.0 4.0 2.0 0.0 9.0 3.0 7.0 6.0 7.0 6.0 2.0 4.0 6.0 3.0 0.0 8.0 4.0 0.0 5.0 9.0 10.0 10.0 0.0 6.0 1.0 2.0 10.0 
1.0 6.0 1.0 5.0 2.0 7.0 7.0 6.0 8.0 4.0 3.0 4.0 6.0 1.0 9.0 6.0 4.0 1.0 8.0 3.0 10.0 6.0 5.0 5.0 9.0 0.0 -469.0 0.0 2.0 2.0 2.0 0.0 4.0 10.0 0.0 6.0 7.0 9.0 9.0 8.0 0.0 0.0 7.0 2.0 7.0 5.0 5.0 1.0 7.0 0.0 7.0 6.0 0.0 9.0 3.0 9.0 7.0 9.0 0.0 8.0 6.0 5.0 4.0 9.0 4.0 9.0 2.0 9.0 6.0 4.0 0.0 4.0 5.0 10.0 0.0 8.0 0.0 5.0 4.0 5.0 3.0 2.0 0.0 1.0 6.0 5.0 1.0 9.0 8.0 10.0 1.0 0.0 10.0 8.0 10.0 9.0 7.0 2.0 
4.0 4.0 5.0 5.0 5.0 2.0 0.0 4.0 10.0 7.0 6.0 0.0 3.0 9.0 5.0 2.0 9.0 3.0 5.0 5.0 3.0 6.0 8.0 7.0 4.0 10.0 0.0 -478.0 2.0 5.0 3.0 1.0 10.0 9.0 5.0 2.0 7.0 6.0 1.0 6.0 7.0 10.0 6.0 2.0 8.0 6.0 9.0 0.0 7.0 4.0 5.0 4.0 1.0 0.0 4.0 5.0 4.0 5.0 10.0 0.0 7.0 5.0 3.0 5.0 5.0 7.0 6.0 8.0 9.0 0.0 5.0 4.0 2.0 8.0 3.0 3.0 0.0 1.0 3.0 0.0 1.0 8.0 10.0 2.0 10.0 9.0 7.0 6.0 5.0 6.0 9.0 9.0 9.0 8.0 5.0 0.0 5.0 0.0 
8.0 5.0 0.0 7.0 3.0 2.0 4.0 10.0 6.0 8.0 4.0 4.0 7.0 5.0 3.0 6.0 8.0 4.0 5.0 5.0 4.0 1.0 10.0 10.0 8.0 4.0 2.0 2.0 -462.0 5.0 6.0 9.0 9.0 8.0 2.0 5.0 6.0 7.0 5.0 7.0 3.0 2.0 9.0 7.0 5.0 7.0 4.0 1.0 8.0 4.0 1.0 0.0 8.0 10.0 0.0 5.0 6.0 6.0 2.0 5.0 2.0 5.0 2.0 0.0 4.0 2.0 8.0 6.0 6.0 2.0 4.0 10.0 5.0 0.0 0.0 2.0 0.0 5.0 3.0 5.0 8.0 3.0 1.0 5.0 1.0 7.0 4.0 7.0 3.0 3.0 9.0 7.0 6.0 3.0 3.0 8.0 3.0 3.0 
4.0 3.0 4.0 10.0 3.0 10.0 10.0 8.0 3.0 2.0 8.0 1.0 4.0 1.0 5.0 3.0 1.0 7.0 8.0 5.0 4.0 2.0 2.0 4.0 2.0 9.0 2.0 5.0 5.0 -460.0 10.0 1.0 4.0 2.0 5.0 1.0 4.0 7.0 10.0 1.0 10.0 5.0 10.0 5.0 0.0 1.0 8.0 2.0 10.0 2.0 2.0 8.0 5.0 4.0 7.0 1.0 4.0 9.0 0.0 10.0 6.0 7.0 8.0 2.0 1.0 10.0 5.0 0.0 6.0 7.0 3.0 7.0 3.0 0.0 8.0 1.0 4.0 6.0 7.0 0.0 6.0 5.0 1.0 0.0 6.0 4.0 7.0 7.0 2.0 10.0 2.0 8.0 1.0 8.0 0.0 8.0 9.0 2.0 
10.0 10.0 3.0 7.0 2.0 1.0 0.0 10.0 9.0 7.0 2.0 10.0 8.0 9.0 5.0 3.0 4.0 4.0 2.0 1.0 6.0 4.0 1.0 10.0 3.0 6.0 2.0 3.0 6.0 10.0 -506.0 4.0 0.0 7.0 5.0 6.0 9.0 4.0 3.0 4.0 3.0 5.0 10.0 9.0 0.0 1.0 4.0 10.0 2.0 8.0 7.0 7.0 10.0 0.0 6.0 6.0 7.0 6.0 5.0 4.0 6.0 0.0 5.0 0.0 6.0 8.0 1.0 4.0 2.0 6.0 4.0 1.0 0.0 4.0 10.0 9.0 10.0 5.0 1.0 9.0 1.0 8.0 2.0 5.0 9.0 9.0 9.0 5.0 6.0 10.0 8.0 4.0 4.0 4.0 5.0 7.0 0.0 9.0 
9.0 7.0 5.0 9.0 5.0 10.0 10.0 7.0 4.0 10.0 2.0 4.0 7.0 8.0 0.0 7.0 2.0 4.0 3.0 6.0 2.0 7.0 8.0 5.0 7.0 4.0 0.0 1.0 9.0 1.0 4.0 -498.0 8.0 0.0 10.0 9.0 10.0 9.0 8.0 3.0 8.0 8.0 1.0 4.0 10.0 9.0 1.0 8.0 2.0 4.0 0.0 7.0 9.0 2.0 0.0 10.0 10.0 4.0 3.0 6.0 1.0 9.0 7.0 4.0 8.0 1.0 3.0 4.0 5.0 0.0 4.0 0.0 2.0 7.0 9.0 2.0 9.0 7.0 4.0 10.0 2.0 1.0 9.0 8.0 3.0 2.0 1.0 10.0 2.0 7.0 0.0 1.0 0.0 2.0 2.0 8.0 4.0 10.0 
4.0 2.0 4.0 6.0 2.0 4.0 8.0 9.0 5.0 5.0 8.0 8.0 8.0 7.0 1.0 3.0 4.0 2.0 10.0 9.0 8.0 4.0 1.0 2.0 7.0 0.0 4.0 10.0 9.0 4.0 0.0 8.0 -488.0 6.0 3.0 0.0 8.0 1.0 8.0 1.0 1.0 2.0 0.0 6.0 3.0 10.0 5.0 0.0 9.0 9.0 10.0 10.0 3.0 5.0 0.0 10.0 9.0 5.0 2.0 5.0 5.0 3.0 1.0 8.0 6.0 10.0 7.0 2.0 4.0 8.0 9.0 10.0 0.0 3.0 7.0 0.0 8.0 9.0 6.0 1.0 8.0 3.0 2.0 6.0 7.0 2.0 5.0 7.0 0.0 6.0 0.0 1.0 4.0 10.0 7.0 1.0 6.0 9.0 
4.0 8.0 8.0 9.0 4.0 5.0 0.0 5.0 2.0 7.0 9.0 9.0 3.0 7.0 9.0 9.0 0.0 4.0 1.0 0.0 10.0 0.0 10.0 6.0 0.0 0.0 10.0 9.0 8.0 2.0 7.0 0.0 6.0 -500.0 7.0 9.0 3.0 7.0 8.0 4.0 7.0 10.0 2.0 2.0 2.0 9.0 4.0 2.0 4.0 2.0 10.0 6.0 7.0 0.0 6.0 5.0 5.0 8.0 7.0 10.0 2.0 2.0 4.0 10.0 4.0 7.0 3.0 0.0 7.0 10.0 10.0 7.0 2.0 2.0 0.0 10.0 6.0 0.0 10.0 7.0 0.0 6.0 2.0 8.0 9.0 6.0 0.0 9.0 4.0 2.0 6.0 0.0 8.0 9.0 8.0 3.0 0.0 0.0 
2.0 9.0 9.0 1.0 10.0 7.0 6.0 8.0 1.0 7.0 0.0 9.0 10.0 5.0 2.0 10.0 5.0 10.0 7.0 4.0 9.0 10.0 7.0 7.0 4.0 4.0 0.0 5.0 2.0 5.0 5.0 10.0 3.0 7.0 -485.0 0.0 4.0 10.0 2.0 10.0 7.0 0.0 6.0 1.0 5.0 8.0 1.0 2.0 4.0 5.0 8.0 5.0 10.0 5.0 6.0 2.0 8.0 10.0 1.0 4.0 4.0 4.0 2.0 4.0 1.0 9.0 0.0 3.0 10.0 1.0 4.0 0.0 0.0 1.0 3.0 6.0 0.0 5.0 3.0 4.0 6.0 1.0 3.0 7.0 9.0 6.0 10.0 3.0 4.0 10.0 5.0 3.0 0.0 8.0 3.0 5.0 4.0 10.0 
10.0 3.0 4.0 3.0 8.0 10.0 5.0 7.0 8.0 9.0 2.0 1.0 10.0 3.0 4.0 5.0 7.0 1.0 9.0 2.0 10.0 9.0 9.0 2.0 10.0 8.0 6.0 2.0 5.0 1.0 6.0 9.0 0.0 9.0 0.0 -496.0 10.0 9.0 1.0 0.0 9.0 6.0 0.0 9.0 10.0 3.0 7.0 9.0 5.0 3.0 3.0 7.0 2.0 4.0 0.0 5.0 1.0 1.0 1.0 5.0 10.0 9.0 0.0 6.0 5.0 1.0 8.0 4.0 2.0 10.0 0.0 8.0 3.0 1.0 4.0 4.0 5.0 6.0 10.0 6.0 5.0 10.0 0.0 1.0 0.0 7.0 7.0 0.0 5.0 9.0 1.0 6.0 2.0 7.0 0.0 8.0 10.0 9.0 
4.0 5.0 8.0 8.0 1.0 7.0 3.0 2.0 8.0 9.0 7.0 7.0 3.0 7.0 10.0 4.0 7.0 0.0 8.0 0.0 9.0 0.0 8.0 3.0 7.0 0.0 7.0 7.0 6.0 4.0 9.0 10.0 8.0 3.0 4.0 10.0 -473.0 7.0 2.0 3.0 10.0 5.0 6.0 1.0 2.0 0.0 1.0 1.0 4.0 3.0 3.0 0.0 4.0 10.0 4.0 2.0 3.0 6.0 0.0 1.0 8.0 5.0 7.0 10.0 6.0 2.0 4.0 9.0 5.0 0.0 10.0 0.0 0.0 9.0 0.0 10.0 4.0 7.0 5.0 1.0 8.0 9.0 0.0 10.0 0.0 10.0 5.0 2.0 5.0 7.0 2.0 0.0 6.0 6.0 6.0 1.0 6.0 7.0 
0.0 7.0 4.0 1.0 7.0 5.0 4.0 4.0 8.0 7.0 1.0 8.0 4.0 1.0 8.0 0.0 2.0 6.0 4.0 5.0 9.0 6.0 1.0 4.0 1.0 4.0 9.0 6.0 7.0 7.0 4.0 9.0 1.0 7.0 10.0 9.0 7.0 -468.0 7.0 6.0 4.0 1.0 4.0 10.0 2.0 10.0 4.0 10.0 6.0 4.0 2.0 2.0 5.0 1.0 8.0 0.0 10.0 6.0 5.0 8.0 2.0 1.0 1.0 0.0 2.0 8.0 7.0 3.0 5.0 5.0 3.0 8.0 8.0 3.0 1.0 5.0 0.0 2.0 1.0 5.0 6.0 1.0 2.0 6.0 3.0 8.0 5.0 9.0 1.0 4.0 9.0 10.0 0.0 8.0 2.0 8.0 5.0 9.0 
2.0 8.0 9.0 3.0 10.0 4.0 8.0 1.0 0.0 2.0 5.0 0.0 0.0 5.0 6.0 1.0 6.0 2.0 7.0 5.0 9.0 8.0 6.0 2.0 3.0 7.0 9.0 1.0 5.0 10.0 3.0 8.0 8.0 8.0 2.0 1.0 2.0 7.0 -465.0 7.0 8.0 1.0 4.0 9.0 10.0 2.0 10.0 3.0 2.0 1.0 2.0 7.0 1.0 8.0 5.0 4.0 4.0 5.0 5.0 1.0 5.0 7.0 5.0 1.0 2.0 4.0 4.0 4.0 10.0 5.0 9.0 5.0 3.0 4.0 7.0 0.0 10.0 2.0 0.0 4.0 7.0 4.0 9.0 1.0 6.0 5.0 4.0 1.0 8.0 6.0 2.0 3.0 10.0 9.0 0.0 10.0 2.0 5.0 
10.0 3.0 10.0 7.0 1.0 2.0 10.0 3.0 8.0 0.0 5.0 6.0 1.0 6.0 4.0 4.0 8.0 1.0 1.0 3.0 4.0 2.0 2.0 6.0 10.0 2.0 8.0 6.0 7.0 1.0 4.0 3.0 1.0 4.0 10.0 0.0 3.0 6.0 7.0 -463.0 4.0 6.0 4.0 2.0 7.0 8.0 7.0 2.0 2.0 8.0 1.0 4.0 4.0 9.0 1.0 5.0 0.0 3.0 4.0 2.0 7.0 5.0 4.0 10.0 5.0 9.0 10.0 0.0 5.0 8.0 8.0 9.0 10.0 2.0 4.0 6.0 2.0 5.0 9.0 4.0 8.0 9.0 1.0 3.0 7.0 2.0 0.0 3.0 2.0 8.0 1.0 10.0 7.0 2.0 6.0 0.0 9.0 1.0 
8.0 5.0 3.0 10.0 4.0 4.0 2.0 7.0 2.0 3.0 7.0 2.0 1.0 1.0 5.0 2.0 1.0 2.0 3.0 5.0 2.0 4.0 9.0 4.0 1.0 8.0 0.0 7.0 3.0 10.0 3.0 8.0 1.0 7.0 7.0 9.0 10.0 4.0 8.0 4.0 -489.0 5.0 6.0 1.0 10.0 2.0 0.0 6.0 10.0 10.0 10.0 9.0 5.0 1.0 10.0 10.0 3.0 3.0 3.0 1.0 4.0 0.0 3.0 9.0 7.0 2.0 6.0 4.0 3.0 3.0 4.0 8.0 4.0 10.0 10.0 4.0 7.0 7.0 6.0 3.0 10.0 10.0 1.0 5.0 0.0 9.0 1.0 0.0 5.0 3.0 10.0 6.0 5.0 8.0 10.0 2.0 4.0 5.0 
4.0 7.0 7.0 9.0 0.0 9.0 8.0 0.0 9.0 7.0 9.0 3.0 0.0 3.0 7.0 10.0 4.0 1.0 6.0 6.0 4.0 10.0 1.0 4.0 7.0 8.0 0.0 10.0 2.0 5.0 5.0 8.0 2.0 10.0 0.0 6.0 5.0 1.0 1.0 6.0 5.0 -493.0 1.0 1.0 5.0 3.0 3.0 8.0 7.0 2.0 7.0 2.0 2.0 7.0 0.0 5.0 8.0 5.0 9.0 10.0 1.0 2.0 5.0 2.0 1.0 8.0 8.0 3.0 1.0 4.0 6.0 4.0 8.0 9.0 7.0 9.0 6.0 2.0 9.0 6.0 8.0 2.0 0.0 5.0 3.0 2.0 0.0 8.0 10.0 9.0 8.0 4.0 1.0 9.0 5.0 10.0 6.0 8.0 
0.0 4.0 3.0 5.0 10.0 4.0 1.0 1.0 4.0 1.0 1.0 1.0 4.0 1.0 7.0 3.0 9.0 10.0 0.0 10.0 5.0 10.0 8.0 3.0 4.0 0.0 7.0 6.0 9.0 10.0 10.0 1.0 0.0 2.0 6.0 0.0 6.0 4.0 4.0 4.0 6.0 1.0 -428.0 6.0 0.0 3.0 6.0 6.0 8.0 0.0 9.0 5.0 5.0 3.0 7.0 1.0 4.0 8.0 4.0 10.0 2.0 8.0 3.0 1.0 10.0 10.0 6.0 1.0 2.0 1.0 0.0 0.0 9.0 6.0 4.0 2.0 8.0 7.0 0.0 7.0 2.0 10.0 6.0 1.0 5.0 4.0 2.0 8.0 2.0 1.0 2.0 5.0 0.0 1.0 9.0 1.0 6.0 6.0 
0.0 4.0 8.0 2.0 10.0 6.0 4.0 8.0 0.0 5.0 4.0 10.0 0.0 7.0 2.0 2.0 10.0 10.0 5.0 7.0 10.0 5.0 9.0 4.0 10.0 0.0 2.0 2.0 7.0 5.0 9.0 4.0 6.0 2.0 1.0 9.0 1.0 10.0 9.0 2.0 1.0 1.0 6.0 -480.0 5.0 7.0 0.0 4.0 3.0 2.0 3.0 2.0 4.0 3.0 5.0 10.0 10.0 0.0 10.0 8.0 9.0 4.0 5.0 2.0 5.0 9.0 2.0 3.0 1.0 10.0 3.0 5.0 3.0 0.0 5.0 4.0 5.0 4.0 3.0 3.0 10.0 10.0 5.0 0.0 1.0 2.0 7.0 6.0 7.0 3.0 5.0 2.0 3.0 9.0 7.0 10.0 7.0 6.0 
3.0 6.0 6.0 4.0 6.0 8.0 10.0 2.0 10.0 2.0 8.0 8.0 9.0 0.0 7.0 5.0 7.0 10.0 2.0 5.0 0.0 5.0 9.0 5.0 3.0 10.0 7.0 8.0 5.0 0.0 0.0 10.0 3.0 2.0 5.0 10.0 2.0 2.0 10.0 7.0 10.0 5.0 0.0 5.0 -539.0 10.0 8.0 10.0 8.0 10.0 8.0 4.0 4.0 9.0 4.0 10.0 0.0 3.0 6.0 10.0 7.0 8.0 7.0 0.0 2.0 7.0 0.0 7.0 7.0 3.0 3.0 7.0 7.0 7.0 4.0 0.0 1.0 6.0 10.0 2.0 0.0 7.0 5.0 10.0 2.0 3.0 7.0 10.0 6.0 4.0 9.0 2.0 4.0 5.0 6.0 5.0 10.0 4.0 
4.0 3.0 10.0 5.0 5.0 5.0 9.0 4.0 8.0 3.0 9.0 0.0 1.0 1.0 2.0 8.0 0.0 2.0 1.0 8.0 3.0 6.0 10.0 10.0 3.0 4.0 5.0 6.0 7.0 1.0 1.0 9.0 10.0 9.0 8.0 3.0 0.0 10.0 2.0 8.0 2.0 3.0 3.0 7.0 10.0 -481.0 8.0 2.0 8.0 9.0 1.0 3.0 4.0 7.0 1.0 0.0 2.0 2.0 5.0 1.0 3.0 0.0 4.0 2.0 1.0 6.0 6.0 9.0 4.0 6.0 1.0 10.0 10.0 5.0 5.0 2.0 2.0 2.0 6.0 6.0 4.0 6.0 4.0 8.0 5.0 9.0 4.0 5.0 6.0 10.0 7.0 10.0 0.0 10.0 7.0 8.0 5.0 2.0 
5.0 7.0 9.0 8.0 2.0 6.0 10.0 4.0 3.0 4.0 9.0 7.0 3.0 4.0 4.0 6.0 0.0 10.0 7.0 8.0 6.0 9.0 3.0 9.0 7.0 8.0 5.0 9.0 4.0 8.0 4.0 1.0 5.0 4.0 1.0 7.0 1.0 4.0 10.0 7.0 0.0 3.0 6.0 0.0 8.0 8.0 -480.0 5.0 1.0 6.0 0.0 6.0 9.0 3.0 8.0 7.0 10.0 10.0 0.0 9.0 3.0 10.0 4.0 2.0 4.0 1.0 3.0 2.0 2.0 10.0 1.0 10.0 1.0 0.0 1.0 4.0 3.0 0.0 1.0 9.0 4.0 4.0 4.0 3.0 2.0 0.0 2.0 5.0 6.0 6.0 7.0 7.0 3.0 0.0 4.0 7.0 8.0 10.0 
5.0 6.0 2.0 5.0 4.0 7.0 3.0 7.0 0.0 5.0 2.0 8.0 9.0 7.0 3.0 8.0 1.0 2.0 8.0 7.0 6.0 5.0 0.0 3.0 8.0 1.0 1.0 0.0 1.0 2.0 10.0 8.0 0.0 2.0 2.0 9.0 1.0 10.0 3.0 2.0 6.0 8.0 6.0 4.0 10.0 2.0 5.0 -461.0 4.0 8.0 7.0 5.0 4.0 7.0 0.0 1.0 0.0 8.0 3.0 10.0 7.0 2.0 2.0 8.0 10.0 5.0 4.0 7.0 2.0 1.0 5.0 3.0 7.0 6.0 6.0 4.0 4.0 6.0 10.0 0.0 7.0 8.0 2.0 5.0 0.0 4.0 3.0 10.0 6.0 5.0 6.0 0.0 10.0 5.0 7.0 8.0 2.0 3.0 
0.0 8.0 4.0 1.0 1.0 8.0 9.0 6.0 7.0 6.0 6.0 0.0 5.0 9.0 0.0 5.0 1.0 2.0 7.0 3.0 10.0 9.0 9.0 7.0 10.0 3.0 7.0 7.0 8.0 10.0 2.0 2.0 9.0 4.0 4.0 5.0 4.0 6.0 2.0 2.0 10.0 7.0 8.0 3.0 8.0 8.0 1.0 4.0 -536.0 7.0 4.0 0.0 6.0 4.0 7.0 4.0 9.0 0.0 2.0 8.0 3.0 2.0 10.0 9.0 7.0 4.0 6.0 2.0 8.0 0.0 5.0 5.0 8.0 6.0 5.0 3.0 8.0 9.0 6.0 0.0 4.0 3.0 9.0 3.0 7.0 3.0 5.0 4.0 8.0 8.0 7.0 10.0 9.0 10.0 7.0 6.0 9.0 10.0 
3.0 5.0 8.0 4.0 4.0 1.0 0.0 5.0 4.0 6.0 8.0 4.0 2.0 4.0 1.0 8.0 10.0 6.0 2.0 7.0 2.0 4.0 9.0 6.0 3.0 5.0 0.0 4.0 4.0 2.0 8.0 4.0 9.0 2.0 5.0 3.0 3.0 4.0 1.0 8.0 10.0 2.0 0.0 2.0 10.0 9.0 6.0 8.0 7.0 -488.0 2.0 3.0 8.0 0.0 0.0 4.0 7.0 3.0 10.0 9.0 3.0 1.0 5.0 10.0 9.0 5.0 7.0 9.0 2.0 9.0 9.0 8.0 3.0 7.0 2.0 7.0 2.0 2.0 7.0 3.0 7.0 1.0 8.0 7.0 3.0 10.0 0.0 6.0 1.0 8.0 9.0 7.0 3.0 9.0 10.0 6.0 0.0 5.0 
1.0 8.0 5.0 2.0 4.0 7.0 1.0 1.0 0.0 3.0 6.0 2.0 6.0 8.0 8.0 8.0 0.0 2.0 1.0 2.0 1.0 9.0 5.0 0.0 1.0 8.0 7.0 5.0 1.0 2.0 7.0 0.0 10.0 10.0 8.0 3.0 3.0 2.0 2.0 1.0 10.0 7.0 9.0 3.0 8.0 1.0 0.0 7.0 4.0 2.0 -470.0 1.0 6.0 0.0 4.0 1.0 6.0 4.0 4.0 2.0 5.0 6.0 7.0 5.0 8.0 5.0 10.0 9.0 1.0 5.0 7.0 1.0 8.0 9.0 9.0 8.0 4.0 5.0 2.0 10.0 3.0 9.0 0.0 3.0 8.0 10.0 6.0 9.0 2.0 10.0 5.0 2.0 8.0 10.0 7.0 10.0 0.0 5.0 
5.0 4.0 8.0 9.0 2.0 0.0 10.0 3.0 0.0 0.0 7.0 1.0 9.0 7.0 2.0 8.0 6.0 4.0 10.0 8.0 1.0 9.0 9.0 2.0 7.0 2.0 6.0 4.0 0.0 8.0 7.0 7.0 10.0 6.0 5.0 7.0 0.0 2.0 7.0 4.0 9.0 2.0 5.0 2.0 4.0 3.0 6.0 5.0 0.0 3.0 1.0 -475.0 3.0 9.0 9.0 8.0 3.0 9.0 6.0 4.0 10.0 3.0 2.0 8.0 7.0 7.0 1.0 4.0 6.0 3.0 10.0 9.0 8.0 0.0 2.0 7.0 8.0 7.0 6.0 6.0 6.0 3.0 4.0 8.0 1.0 2.0 3.0 0.0 9.0 5.0 1.0 0.0 4.0 3.0 10.0 2.0 3.0 0.0 
8.0 7.0 8.0 9.0 8.0 3.0 3.0 6.0 10.0 0.0 10.0 9.0 0.0 9.0 1.0 6.0 6.0 2.0 7.0 5.0 8.0 8.0 0.0 10.0 5.0 6.0 0.0 1.0 8.0 5.0 10.0 9.0 3.0 7.0 10.0 2.0 4.0 5.0 1.0 4.0 5.0 2.0 5.0 4.0 4.0 4.0 9.0 4.0 6.0 8.0 6.0 3.0 -509.0 4.0 4.0 4.0 10.0 5.0 10.0 9.0 8.0 8.0 10.0 3.0 7.0 5.0 1.0 0.0 1.0 6.0 2.0 10.0 7.0 2.0 3.0 1.0 5.0 0.0 4.0 6.0 6.0 5.0 7.0 3.0 8.0 8.0 0.0 7.0 4.0 4.0 7.0 5.0 7.0 3.0 3.0 10.0 1.0 3.0 
5.0 9.0 7.0 7.0 8.0 4.0 3.0 3.0 5.0 7.0 6.0 10.0 2.0 4.0 3.0 5.0 7.0 10.0 4.0 1.0 7.0 7.0 0.0 3.0 3.0 9.0 9.0 0.0 10.0 4.0 0.0 2.0 5.0 0.0 5.0 4.0 10.0 1.0 8.0 9.0 1.0 7.0 3.0 3.0 9.0 7.0 3.0 7.0 4.0 0.0 0.0 9.0 4.0 -487.0 2.0 2.0 0.0 7.0 9.0 0.0 8.0 3.0 3.0 10.0 3.0 6.0 0.0 6.0 6.0 2.0 8.0 2.0 8.0 2.0 10.0 10.0 4.0 2.0 0.0 9.0 2.0 5.0 9.0 6.0 0.0 7.0 6.0 10.0 4.0 8.0 10.0 6.0 6.0 8.0 2.0 5.0 5.0 3.0 
1.0 3.0 4.0 9.0 6.0 7.0 6.0 2.0 6.0 7.0 9.0 10.0 10.0 0.0 0.0 5.0 4.0 3.0 9.0 3.0 10.0 8.0 1.0 8.0 4.0 0.0 3.0 4.0 0.0 7.0 6.0 0.0 0.0 6.0 6.0 0.0 4.0 8.0 5.0 1.0 10.0 0.0 7.0 5.0 4.0 1.0 8.0 0.0 7.0 0.0 4.0 9.0 4.0 2.0 -449.0 5.0 2.0 1.0 9.0 7.0 4.0 7.0 2.0 2.0 5.0 1.0 4.0 7.0 5.0 2.0 7.0 7.0 5.0 3.0 6.0 7.0 10.0 2.0 8.0 7.0 2.0 8.0 9.0 2.0 1.0 1.0 9.0 4.0 3.0 8.0 3.0 4.0 7.0 5.0 0.0 9.0 0.0 3.0 
4.0 6.0 3.0 7.0 3.0 3.0 6.0 8.0 9.0 1.0 9.0 2.0 0.0 6.0 4.0 8.0 6.0 10.0 1.0 6.0 7.0 2.0 7.0 2.0 10.0 6.0 9.0 5.0 5.0 1.0 6.0 10.0 10.0 5.0 2.0 5.0 2.0 0.0 4.0 5.0 10.0 5.0 1.0 10.0 10.0 0.0 7.0 1.0 4.0 4.0 1.0 8.0 4.0 2.0 5.0 -469.0 6.0 7.0 2.0 3.0 5.0 5.0 0.0 10.0 6.0 0.0 8.0 1.0 5.0 4.0 4.0 6.0 6.0 8.0 8.0 7.0 6.0 6.0 4.0 2.0 0.0 2.0 0.0 2.0 5.0 5.0 2.0 6.0 3.0 2.0 5.0 3.0 5.0 7.0 6.0 9.0 1.0 10.0 
4.0 8.0 1.0 7.0 5.0 9.0 7.0 7.0 3.0 0.0 0.0 7.0 10.0 10.0 6.0 10.0 5.0 1.0 8.0 8.0 10.0 1.0 9.0 9.0 7.0 5.0 7.0 4.0 6.0 4.0 7.0 10.0 9.0 5.0 8.0 1.0 3.0 10.0 4.0 0.0 3.0 8.0 4.0 10.0 0.0 2.0 10.0 0.0 9.0 7.0 6.0 3.0 10.0 0.0 2.0 6.0 -546.0 8.0 5.0 9.0 3.0 1.0 8.0 10.0 7.0 6.0 7.0 3.0 7.0 3.0 10.0 7.0 10.0 6.0 5.0 4.0 4.0 9.0 2.0 2.0 2.0 10.0 1.0 5.0 4.0 7.0 6.0 9.0 7.0 5.0 6.0 2.0 10.0 2.0 3.0 7.0 6.0 3.0 
0.0 8.0 2.0 4.0 0.0 0.0 5.0 9.0 4.0 4.0 4.0 1.0 9.0 3.0 2.0 8.0 7.0 9.0 10.0 5.0 0.0 0.0 5.0 9.0 2.0 0.0 9.0 5.0 6.0 9.0 6.0 4.0 5.0 8.0 10.0 1.0 6.0 6.0 5.0 3.0 3.0 5.0 8.0 0.0 3.0 2.0 10.0 8.0 0.0 3.0 4.0 9.0 5.0 7.0 1.0 7.0 8.0 -439.0 1.0 4.0 4.0 2.0 5.0 2.0 9.0 1.0 0.0 6.0 10.0 0.0 5.0 6.0 4.0 8.0 2.0 7.0 10.0 3.0 4.0 4.0 6.0 4.0 0.0 6.0 2.0 0.0 7.0 0.0 5.0 2.0 5.0 2.0 9.0 6.0 10.0 1.0 1.0 0.0 
9.0 8.0 8.0 4.0 5.0 9.0 4.0 10.0 5.0 7.0 3.0 0.0 5.0 9.0 9.0 7.0 5.0 8.0 8.0 10.0 3.0 0.0 4.0 2.0 9.0 7.0 0.0 10.0 2.0 0.0 5.0 3.0 2.0 7.0 1.0 1.0 0.0 5.0 5.0 4.0 3.0 9.0 4.0 10.0 6.0 5.0 0.0 3.0 2.0 10.0 4.0 6.0 10.0 9.0 9.0 2.0 5.0 1.0 -501.0 10.0 3.0 4.0 5.0 1.0 8.0 3.0 0.0 4.0 3.0 1.0 1.0 10.0 7.0 6.0 10.0 5.0 2.0 5.0 6.0 0.0 8.0 7.0 0.0 7.0 7.0 3.0 8.0 9.0 6.0 0.0 2.0 4.0 9.0 3.0 9.0 8.0 9.0 7.0 
7.0 7.0 9.0 7.0 5.0 10.0 8.0 2.0 3.0 8.0 6.0 10.0 2.0 4.0 1.0 9.0 8.0 9.0 7.0 2.0 10.0 5.0 0.0 2.0 3.0 5.0 8.0 0.0 5.0 10.0 4.0 6.0 5.0 10.0 4.0 5.0 1.0 8.0 1.0 2.0 1.0 10.0 10.0 8.0 10.0 1.0 9.0 10.0 8.0 9.0 2.0 4.0 9.0 0.0 7.0 3.0 9.0 4.0 10.0 -509.0 1.0 6.0 1.0 10.0 6.0 4.0 7.0 0.0 4.0 0.0 3.0 1.0 7.0 8.0 10.0 5.0 2.0 7.0 6.0 3.0 0.0 2.0 1.0 1.0 5.0 5.0 5.0 4.0 4.0 1.0 10.0 9.0 0.0 7.0 7.0 5.0 1.0 9.0 
5.0 2.0 6.0 9.0 7.0 3.0 1.0 6.0 7.0 7.0 7.0 9.0 7.0 1.0 2.0 5.0 1.0 3.0 4.0 6.0 9.0 5.0 0.0 10.0 10.0 4.0 6.0 7.0 2.0 6.0 6.0 1.0 5.0 2.0 4.0 10.0 8.0 2.0 5.0 7.0 4.0 1.0 2.0 9.0 7.0 3.0 3.0 7.0 3.0 3.0 5.0 10.0 8.0 8.0 4.0 5.0 3.0 4.0 3.0 1.0 -515.0 4.0 0.0 9.0 1.0 10.0 7.0 6.0 6.0 6.0 4.0 1.0 4.0 1.0 9.0 6.0 4.0 10.0 4.0 5.0 8.0 10.0 10.0 3.0 4.0 7.0 10.0 2.0 6.0 1.0 8.0 8.0 10.0 9.0 10.0 1.0 1.0 10.0 
0.0 3.0 5.0 10.0 7.0 5.0 2.0 8.0 9.0 2.0 0.0 0.0 1.0 7.0 7.0 8.0 8.0 10.0 1.0 0.0 10.0 2.0 0.0 3.0 9.0 1.0 5.0 5.0 5.0 7.0 0.0 9.0 3.0 2.0 4.0 9.0 5.0 1.0 7.0 5.0 0.0 2.0 8.0 4.0 8.0 0.0 10.0 2.0 2.0 1.0 6.0 3.0 8.0 3.0 7.0 5.0 1.0 2.0 4.0 6.0 4.0 -433.0 3.0 5.0 8.0 5.0 0.0 0.0 5.0 6.0 6.0 0.0 2.0 7.0 2.0 7.0 10.0 5.0 2.0 7.0 8.0 4.0 10.0 10.0 5.0 10.0 2.0 2.0 3.0 0.0 4.0 6.0 0.0 1.0 0.0 9.0 7.0 1.0 
3.0 5.0 2.0 10.0 9.0 1.0 5.0 7.0 5.0 4.0 2.0 8.0 10.0 5.0 2.0 8.0 4.0 5.0 6.0 2.0 0.0 7.0 10.0 7.0 7.0 2.0 4.0 3.0 2.0 8.0 5.0 7.0 1.0 4.0 2.0 0.0 7.0 1.0 5.0 4.0 3.0 5.0 3.0 5.0 7.0 4.0 4.0 2.0 10.0 5.0 7.0 2.0 10.0 3.0 2.0 0.0 8.0 5.0 5.0 1.0 0.0 3.0 -445.0 0.0 10.0 1.0 0.0 1.0 3.0 8.0 8.0 1.0 7.0 10.0 9.0 5.0 8.0 5.0 1.0 9.0 2.0 2.0 1.0 2.0 3.0 0.0 6.0 7.0 6.0 3.0 2.0 1.0 2.0 9.0 3.0 10.0 9.0 8.0 
2.0 4.0 3.0 3.0 10.0 3.0 6.0 6.0 1.0 0.0 10.0 9.0 6.0 9.0 3.0 2.0 1.0 2.0 9.0 5.0 2.0 6.0 7.0 8.0 8.0 7.0 9.0 5.0 0.0 2.0 0.0 4.0 8.0 10.0 4.0 6.0 10.0 0.0 1.0 10.0 9.0 2.0 1.0 2.0 0.0 2.0 2.0 8.0 9.0 10.0 5.0 8.0 3.0 10.0 2.0 10.0 10.0 2.0 1.0 10.0 9.0 5.0 0.0 -505.0 5.0 7.0 0.0 7.0 10.0 0.0 3.0 9.0 4.0 3.0 10.0 9.0 5.0 0.0 7.0 8.0 7.0 6.0 0.0 3.0 9.0 1.0 1.0 6.0 10.0 8.0 8.0 2.0 6.0 4.0 4.0 4.0 9.0 9.0 
0.0 10.0 1.0 2.0 4.0 1.0 9.0 4.0 4.0 4.0 2.0 8.0 3.0 3.0 4.0 3.0 8.0 8.0 5.0 7.0 8.0 4.0 3.0 4.0 6.0 6.0 4.0 5.0 4.0 1.0 6.0 8.0 6.0 4.0 1.0 5.0 6.0 2.0 2.0 5.0 7.0 1.0 10.0 5.0 2.0 1.0 4.0 10.0 7.0 9.0 8.0 7.0 7.0 3.0 5.0 6.0 7.0 9.0 8.0 6.0 1.0 8.0 10.0 5.0 -505.0 7.0 0.0 9.0 8.0 7.0 7.0 7.0 6.0 9.0 8.0 6.0 4.0 6.0 3.0 5.0 1.0 9.0 0.0 6.0 0.0 2.0 4.0 10.0 5.0 1.0 5.0 6.0 10.0 4.0 3.0 10.0 8.0 3.0 
9.0 9.0 9.0 1.0 7.0 8.0 6.0 3.0 2.0 4.0 6.0 5.0 0.0 6.0 5.0 6.0 10.0 8.0 0.0 3.0 9.0 7.0 9.0 1.0 6.0 6.0 9.0 7.0 2.0 10.0 8.0 1.0 10.0 7.0 9.0 1.0 2.0 8.0 4.0 9.0 2.0 8.0 10.0 9.0 7.0 6.0 1.0 5.0 4.0 5.0 5.0 7.0 5.0 6.0 1.0 0.0 6.0 1.0 3.0 4.0 10.0 5.0 1.0 7.0 7.0 -528.0 8.0 6.0 9.0 5.0 7.0 7.0 2.0 4.0 8.0 6.0 0.0 6.0 10.0 1.0 6.0 5.0 8.0 3.0 8.0 0.0 1.0 8.0 2.0 10.0 9.0 8.0 4.0 0.0 4.0 2.0 8.0 6.0 
1.0 9.0 6.0 7.0 7.0 2.0 8.0 10.0 2.0 6.0 1.0 6.0 2.0 10.0 10.0 6.0 7.0 6.0 1.0 5.0 1.0 9.0 1.0 7.0 4.0 5.0 2.0 6.0 8.0 5.0 1.0 3.0 7.0 3.0 0.0 8.0 4.0 7.0 4.0 10.0 6.0 8.0 6.0 2.0 0.0 6.0 3.0 4.0 6.0 7.0 10.0 1.0 1.0 0.0 4.0 8.0 7.0 0.0 0.0 7.0 7.0 0.0 0.0 0.0 0.0 8.0 -474.0 0.0 8.0 1.0 6.0 2.0 8.0 7.0 8.0 7.0 3.0 8.0 6.0 10.0 0.0 4.0 3.0 10.0 9.0 4.0 0.0 2.0 5.0 10.0 8.0 8.0 9.0 6.0 6.0 5.0 3.0 0.0 
0.0 5.0 6.0 10.0 8.0 4.0 4.0 0.0 2.0 8.0 0.0 2.0 5.0 4.0 4.0 2.0 4.0 6.0 3.0 10.0 9.0 4.0 0.0 0.0 0.0 10.0 9.0 8.0 6.0 0.0 4.0 4.0 2.0 0.0 3.0 4.0 9.0 3.0 4.0 0.0 4.0 3.0 1.0 3.0 7.0 9.0 2.0 7.0 2.0 9.0 9.0 4.0 0.0 6.0 7.0 1.0 3.0 6.0 4.0 0.0 6.0 0.0 1.0 7.0 9.0 6.0 0.0 -418.0 1.0 3.0 1.0 2.0 2.0 8.0 6.0 10.0 0.0 9.0 4.0 6.0 1.0 10.0 1.0 6.0 5.0 9.0 6.0 9.0 0.0 9.0 2.0 4.0 5.0 3.0 3.0 0.0 1.0 10.0 
3.0 2.0 8.0 6.0 8.0 7.0 8.0 9.0 9.0 7.0 9.0 6.0 10.0 10.0 4.0 8.0 4.0 8.0 10.0 3.0 0.0 7.0 9.0 5.0 8.0 6.0 6.0 9.0 6.0 6.0 2.0 5.0 4.0 7.0 10.0 2.0 5.0 5.0 10.0 5.0 3.0 1.0 2.0 1.0 7.0 4.0 2.0 2.0 8.0 2.0 1.0 6.0 1.0 6.0 5.0 5.0 7.0 10.0 3.0 4.0 6.0 5.0 3.0 10.0 8.0 9.0 8.0 1.0 -532.0 0.0 0.0 8.0 3.0 9.0 5.0 8.0 9.0 4.0 5.0 4.0 2.0 6.0 5.0 8.0 5.0 0.0 2.0 0.0 9.0 7.0 2.0 7.0 9.0 5.0 9.0 8.0 4.0 3.0 
7.0 1.0 4.0 8.0 1.0 5.0 1.0 5.0 2.0 4.0 10.0 6.0 5.0 9.0 6.0 2.0 3.0 6.0 0.0 8.0 1.0 2.0 5.0 5.0 4.0 6.0 4.0 0.0 2.0 7.0 6.0 0.0 8.0 10.0 1.0 10.0 0.0 5.0 5.0 8.0 3.0 4.0 1.0 10.0 3.0 6.0 10.0 1.0 0.0 9.0 5.0 3.0 6.0 2.0 2.0 4.0 3.0 0.0 1.0 0.0 6.0 6.0 8.0 0.0 7.0 5.0 1.0 3.0 0.0 -442.0 7.0 1.0 7.0 2.0 8.0 6.0 3.0 5.0 5.0 6.0 2.0 8.0 9.0 2.0 10.0 8.0 10.0 0.0 5.0 7.0 3.0 5.0 0.0 4.0 9.0 6.0 10.0 3.0 
7.0 10.0 10.0 8.0 6.0 2.0 0.0 10.0 5.0 7.0 6.0 9.0 8.0 0.0 6.0 9.0 6.0 4.0 7.0 7.0 5.0 2.0 7.0 6.0 3.0 10.0 0.0 5.0 4.0 3.0 4.0 4.0 9.0 10.0 4.0 0.0 10.0 3.0 9.0 8.0 4.0 6.0 0.0 3.0 3.0 1.0 1.0 5.0 5.0 9.0 7.0 10.0 2.0 8.0 7.0 4.0 10.0 5.0 1.0 3.0 4.0 6.0 8.0 3.0 7.0 7.0 6.0 1.0 0.0 7.0 -508.0 6.0 9.0 8.0 2.0 7.0 4.0 7.0 7.0 0.0 2.0 0.0 1.0 5.0 9.0 6.0 6.0 1.0 0.0 8.0 3.0 4.0 4.0 5.0 9.0 8.0 7.0 4.0 
0.0 3.0 5.0 0.0 1.0 5.0 3.0 5.0 9.0 8.0 5.0 1.0 6.0 6.0 0.0 10.0 3.0 3.0 10.0 5.0 9.0 8.0 5.0 4.0 6.0 1.0 4.0 4.0 10.0 7.0 1.0 0.0 10.0 7.0 0.0 8.0 0.0 8.0 5.0 9.0 8.0 4.0 0.0 5.0 7.0 10.0 10.0 3.0 5.0 8.0 1.0 9.0 10.0 2.0 7.0 6.0 7.0 6.0 10.0 1.0 1.0 0.0 1.0 9.0 7.0 7.0 2.0 2.0 8.0 1.0 6.0 -499.0 3.0 8.0 4.0 10.0 6.0 0.0 6.0 8.0 5.0 6.0 3.0 2.0 5.0 6.0 8.0 1.0 4.0 8.0 9.0 6.0 8.0 1.0 9.0 8.0 3.0 5.0 
2.0 8.0 5.0 4.0 8.0 3.0 5.0 6.0 4.0 1.0 2.0 3.0 2.0 4.0 2.0 2.0 9.0 4.0 2.0 8.0 2.0 10.0 6.0 4.0 6.0 4.0 5.0 2.0 5.0 3.0 0.0 2.0 0.0 2.0 0.0 3.0 0.0 8.0 3.0 10.0 4.0 8.0 9.0 3.0 7.0 10.0 1.0 7.0 8.0 3.0 8.0 8.0 7.0 8.0 5.0 6.0 10.0 4.0 7.0 7.0 4.0 2.0 7.0 4.0 6.0 2.0 8.0 2.0 3.0 7.0 9.0 3.0 -451.0 5.0 0.0 3.0 8.0 3.0 9.0 4.0 0.0 0.0 0.0 10.0 4.0 6.0 0.0 3.0 6.0 5.0 4.0 4.0 7.0 0.0 9.0 4.0 1.0 10.0 
7.0 2.0 8.0 5.0 2.0 7.0 10.0 8.0 2.0 1.0 1.0 9.0 10.0 1.0 9.0 9.0 9.0 7.0 1.0 0.0 2.0 6.0 9.0 10.0 0.0 2.0 10.0 8.0 0.0 0.0 4.0 7.0 3.0 2.0 1.0 1.0 9.0 3.0 4.0 2.0 10.0 9.0 6.0 0.0 7.0 5.0 0.0 6.0 6.0 7.0 9.0 0.0 2.0 2.0 3.0 8.0 6.0 8.0 6.0 8.0 1.0 7.0 10.0 3.0 9.0 4.0 7.0 8.0 9.0 2.0 8.0 8.0 5.0 -504.0 4.0 3.0 9.0 10.0 2.0 6.0 7.0 4.0 1.0 2.0 7.0 1.0 10.0 4.0 10.0 7.0 4.0 3.0 7.0 6.0 6.0 0.0 2.0 9.0 
10.0 1.0 9.0 3.0 5.0 0.0 7.0 8.0 6.0 0.0 1.0 0.0 8.0 6.0 6.0 9.0 8.0 4.0 1.0 4.0 1.0 8.0 7.0 8.0 7.0 0.0 0.0 3.0 0.0 8.0 10.0 9.0 7.0 0.0 3.0 4.0 0.0 1.0 7.0 4.0 10.0 7.0 4.0 5.0 4.0 5.0 1.0 6.0 5.0 2.0 9.0 2.0 3.0 10.0 6.0 8.0 5.0 2.0 10.0 10.0 9.0 2.0 9.0 10.0 8.0 8.0 8.0 6.0 5.0 8.0 2.0 4.0 0.0 4.0 -488.0 6.0 5.0 6.0 10.0 5.0 7.0 4.0 2.0 3.0 1.0 10.0 8.0 0.0 2.0 4.0 7.0 5.0 0.0 8.0 3.0 8.0 0.0 4.0 
3.0 2.0 2.0 2.0 8.0 8.0 1.0 7.0 5.0 7.0 10.0 8.0 10.0 9.0 2.0 7.0 10.0 7.0 8.0 9.0 3.0 2.0 6.0 10.0 5.0 9.0 8.0 3.0 2.0 1.0 9.0 2.0 0.0 10.0 6.0 4.0 10.0 5.0 0.0 6.0 4.0 9.0 2.0 4.0 0.0 2.0 4.0 4.0 3.0 7.0 8.0 7.0 1.0 10.0 7.0 7.0 4.0 7.0 5.0 5.0 6.0 7.0 5.0 9.0 6.0 6.0 7.0 10.0 8.0 6.0 7.0 10.0 3.0 3.0 6.0 -535.0 5.0 4.0 10.0 1.0 9.0 3.0 3.0 2.0 5.0 10.0 4.0 0.0 9.0 6.0 3.0 10.0 6.0 6.0 1.0 1.0 5.0 7.0 
3.0 9.0 5.0 7.0 0.0 10.0 2.0 8.0 4.0 7.0 4.0 3.0 5.0 2.0 5.0 3.0 7.0 4.0 5.0 5.0 0.0 1.0 3.0 6.0 7.0 3.0 0.0 0.0 0.0 4.0 10.0 9.0 8.0 6.0 0.0 5.0 4.0 0.0 10.0 2.0 7.0 6.0 8.0 5.0 1.0 2.0 3.0 4.0 8.0 2.0 4.0 8.0 5.0 4.0 10.0 6.0 4.0 10.0 2.0 2.0 4.0 10.0 8.0 5.0 4.0 0.0 3.0 0.0 9.0 3.0 4.0 6.0 8.0 9.0 5.0 5.0 -456.0 1.0 5.0 5.0 3.0 5.0 7.0 10.0 4.0 6.0 1.0 1.0 3.0 0.0 4.0 10.0 6.0 9.0 7.0 0.0 2.0 7.0 
0.0 4.0 4.0 7.0 9.0 9.0 0.0 1.0 6.0 3.0 5.0 2.0 1.0 10.0 1.0 6.0 1.0 9.0 4.0 7.0 5.0 6.0 9.0 6.0 0.0 7.0 5.0 1.0 5.0 6.0 5.0 7.0 9.0 0.0 5.0 6.0 7.0 2.0 2.0 5.0 7.0 2.0 7.0 4.0 6.0 2.0 0.0 6.0 9.0 2.0 5.0 7.0 0.0 2.0 2.0 6.0 9.0 3.0 5.0 7.0 10.0 5.0 5.0 0.0 6.0 6.0 8.0 9.0 4.0 5.0 7.0 0.0 3.0 10.0 6.0 4.0 1.0 -469.0 8.0 6.0 10.0 9.0 0.0 3.0 8.0 3.0 5.0 4.0 5.0 3.0 7.0 10.0 2.0 2.0 8.0 1.0 5.0 3.0 
2.0 4.0 5.0 7.0 1.0 6.0 4.0 8.0 1.0 3.0 1.0 0.0 10.0 10.0 7.0 9.0 8.0 9.0 9.0 8.0 7.0 8.0 0.0 5.0 5.0 6.0 4.0 3.0 3.0 7.0 1.0 4.0 6.0 10.0 3.0 10.0 5.0 1.0 0.0 9.0 6.0 9.0 0.0 3.0 10.0 6.0 1.0 10.0 6.0 7.0 2.0 6.0 4.0 0.0 8.0 4.0 2.0 4.0 6.0 6.0 4.0 2.0 1.0 7.0 3.0 10.0 6.0 4.0 5.0 5.0 7.0 6.0 9.0 2.0 10.0 10.0 5.0 8.0 -504.0 5.0 0.0 4.0 3.0 3.0 3.0 6.0 8.0 8.0 3.0 4.0 1.0 10.0 4.0 8.0 8.0 2.0 6.0 5.0 
0.0 5.0 4.0 10.0 5.0 0.0 9.0 5.0 4.0 2.0 5.0 5.0 8.0 6.0 5.0 5.0 7.0 6.0 2.0 10.0 3.0 4.0 2.0 6.0 8.0 7.0 5.0 0.0 5.0 0.0 9.0 10.0 1.0 7.0 4.0 6.0 1.0 5.0 4.0 4.0 3.0 6.0 7.0 3.0 2.0 6.0 9.0 0.0 0.0 3.0 10.0 6.0 6.0 9.0 7.0 2.0 2.0 4.0 0.0 3.0 5.0 7.0 9.0 8.0 5.0 1.0 10.0 6.0 4.0 6.0 0.0 8.0 4.0 6.0 5.0 1.0 5.0 6.0 5.0 -456.0 7.0 8.0 0.0 0.0 4.0 3.0 4.0 7.0 2.0 3.0 3.0 6.0 1.0 4.0 5.0 6.0 4.0 6.0 
10.0 8.0 6.0 1.0 10.0 5.0 3.0 5.0 10.0 4.0 2.0 6.0 5.0 2.0 1.0 3.0 2.0 0.0 4.0 5.0 0.0 3.0 7.0 9.0 7.0 6.0 3.0 1.0 8.0 6.0 1.0 2.0 8.0 0.0 6.0 5.0 8.0 6.0 7.0 8.0 10.0 8.0 2.0 10.0 0.0 4.0 4.0 7.0 4.0 7.0 3.0 6.0 6.0 2.0 2.0 0.0 2.0 6.0 8.0 0.0 8.0 8.0 2.0 7.0 1.0 6.0 0.0 1.0 2.0 2.0 2.0 5.0 0.0 7.0 7.0 9.0 3.0 10.0 0.0 7.0 -444.0 5.0 4.0 0.0 8.0 7.0 0.0 1.0 5.0 6.0 6.0 2.0 10.0 3.0 3.0 1.0 7.0 5.0 
5.0 5.0 7.0 0.0 4.0 8.0 0.0 0.0 2.0 5.0 4.0 1.0 4.0 8.0 6.0 4.0 7.0 9.0 7.0 9.0 5.0 0.0 3.0 4.0 10.0 2.0 2.0 8.0 3.0 5.0 8.0 1.0 3.0 6.0 1.0 10.0 9.0 1.0 4.0 9.0 10.0 2.0 10.0 10.0 7.0 6.0 4.0 8.0 3.0 1.0 9.0 3.0 5.0 5.0 8.0 2.0 10.0 4.0 7.0 2.0 10.0 4.0 2.0 6.0 9.0 5.0 4.0 10.0 6.0 8.0 0.0 6.0 0.0 4.0 4.0 3.0 5.0 9.0 4.0 8.0 5.0 -473.0 1.0 5.0 1.0 1.0 0.0 9.0 2.0 7.0 6.0 3.0 3.0 4.0 2.0 6.0 6.0 0.0 
8.0 0.0 9.0 8.0 8.0 10.0 3.0 1.0 9.0 5.0 4.0 3.0 9.0 1.0 5.0 10.0 5.0 10.0 3.0 4.0 5.0 1.0 6.0 4.0 5.0 4.0 0.0 10.0 1.0 1.0 2.0 9.0 2.0 2.0 3.0 0.0 0.0 2.0 9.0 1.0 1.0 0.0 6.0 5.0 5.0 4.0 4.0 2.0 9.0 8.0 0.0 4.0 7.0 9.0 9.0 0.0 1.0 0.0 0.0 1.0 10.0 10.0 1.0 0.0 0.0 8.0 3.0 1.0 5.0 9.0 1.0 3.0 0.0 1.0 2.0 3.0 7.0 0.0 3.0 0.0 4.0 1.0 -413.0 3.0 8.0 5.0 6.0 8.0 10.0 0.0 10.0 6.0 4.0 1.0 6.0 7.0 9.0 1.0 
3.0 0.0 3.0 4.0 7.0 7.0 3.0 4.0 2.0 7.0 9.0 9.0 9.0 7.0 6.0 2.0 10.0 2.0 10.0 0.0 3.0 3.0 3.0 6.0 8.0 6.0 1.0 2.0 5.0 0.0 5.0 8.0 6.0 8.0 7.0 1.0 10.0 6.0 1.0 3.0 5.0 5.0 1.0 0.0 10.0 8.0 3.0 5.0 3.0 7.0 3.0 8.0 3.0 6.0 2.0 2.0 5.0 6.0 7.0 1.0 3.0 10.0 2.0 3.0 6.0 3.0 10.0 6.0 8.0 2.0 5.0 2.0 10.0 2.0 3.0 2.0 10.0 3.0 3.0 0.0 0.0 5.0 3.0 -459.0 0.0 7.0 9.0 6.0 7.0 7.0 2.0 6.0 10.0 0.0 1.0 7.0 9.0 1.0 
4.0 0.0 1.0 8.0 5.0 1.0 6.0 3.0 10.0 1.0 9.0 7.0 0.0 7.0 0.0 4.0 8.0 3.0 7.0 3.0 4.0 7.0 5.0 8.0 0.0 3.0 6.0 10.0 1.0 6.0 9.0 3.0 7.0 9.0 9.0 0.0 0.0 3.0 6.0 7.0 0.0 3.0 5.0 1.0 2.0 5.0 2.0 0.0 7.0 3.0 8.0 1.0 8.0 0.0 1.0 5.0 4.0 2.0 7.0 5.0 4.0 5.0 3.0 9.0 0.0 8.0 9.0 5.0 5.0 10.0 9.0 5.0 4.0 7.0 1.0 5.0 4.0 8.0 3.0 4.0 8.0 1.0 8.0 0.0 -451.0 8.0 5.0 5.0 8.0 8.0 8.0 6.0 6.0 2.0 9.0 0.0 1.0 1.0 
2.0 0.0 9.0 5.0 2.0 10.0 5.0 7.0 9.0 3.0 4.0 4.0 7.0 2.0 1.0 8.0 8.0 0.0 1.0 5.0 5.0 6.0 3.0 1.0 0.0 0.0 5.0 9.0 7.0 4.0 9.0 2.0 2.0 6.0 6.0 7.0 10.0 8.0 5.0 2.0 9.0 2.0 4.0 2.0 3.0 9.0 0.0 4.0 3.0 10.0 10.0 2.0 8.0 7.0 1.0 5.0 7.0 0.0 3.0 5.0 7.0 10.0 0.0 1.0 2.0 0.0 4.0 9.0 0.0 8.0 6.0 6.0 6.0 1.0 10.0 10.0 6.0 3.0 6.0 3.0 7.0 1.0 5.0 7.0 8.0 -477.0 5.0 9.0 10.0 10.0 1.0 2.0 6.0 7.0 2.0 0.0 7.0 9.0 
5.0 0.0 1.0 6.0 9.0 8.0 5.0 1.0 8.0 2.0 4.0 4.0 6.0 1.0 9.0 8.0 2.0 2.0 0.0 4.0 2.0 3.0 3.0 4.0 0.0 8.0 1.0 7.0 4.0 7.0 9.0 1.0 5.0 0.0 10.0 7.0 5.0 5.0 4.0 0.0 1.0 0.0 2.0 7.0 7.0 4.0 2.0 3.0 5.0 0.0 6.0 3.0 0.0 6.0 9.0 2.0 6.0 7.0 8.0 5.0 10.0 2.0 6.0 1.0 4.0 1.0 0.0 6.0 2.0 10.0 6.0 8.0 0.0 10.0 8.0 4.0 1.0 5.0 8.0 4.0 0.0 0.0 6.0 9.0 5.0 5.0 -435.0 2.0 2.0 4.0 8.0 7.0 0.0 9.0 10.0 1.0 8.0 10.0 
9.0 0.0 2.0 1.0 9.0 2.0 0.0 0.0 1.0 8.0 1.0 1.0 6.0 7.0 3.0 7.0 8.0 10.0 8.0 10.0 4.0 10.0 1.0 5.0 5.0 4.0 9.0 6.0 7.0 7.0 5.0 10.0 7.0 9.0 3.0 0.0 2.0 9.0 1.0 3.0 0.0 8.0 8.0 6.0 10.0 5.0 5.0 10.0 4.0 6.0 9.0 0.0 7.0 10.0 4.0 6.0 9.0 0.0 9.0 4.0 2.0 2.0 7.0 6.0 10.0 8.0 2.0 9.0 0.0 0.0 1.0 1.0 3.0 4.0 0.0 0.0 1.0 4.0 8.0 7.0 1.0 9.0 8.0 6.0 5.0 9.0 2.0 -472.0 2.0 3.0 6.0 0.0 2.0 6.0 9.0 5.0 4.0 0.0 
2.0 0.0 5.0 6.0 2.0 5.0 5.0 8.0 2.0 6.0 6.0 4.0 2.0 8.0 9.0 10.0 3.0 6.0 2.0 9.0 9.0 7.0 10.0 2.0 10.0 0.0 8.0 5.0 3.0 2.0 6.0 2.0 0.0 4.0 4.0 5.0 5.0 1.0 8.0 2.0 5.0 10.0 2.0 7.0 6.0 6.0 6.0 6.0 8.0 1.0 2.0 9.0 4.0 4.0 3.0 3.0 7.0 5.0 6.0 4.0 6.0 3.0 6.0 10.0 5.0 2.0 5.0 0.0 9.0 5.0 0.0 4.0 6.0 10.0 2.0 9.0 3.0 5.0 3.0 2.0 5.0 2.0 10.0 7.0 8.0 10.0 2.0 2.0 -473.0 6.0 5.0 2.0 9.0 3.0 5.0 2.0 3.0 0.0 
2.0 0.0 7.0 1.0 7.0 4.0 7.0 5.0 10.0 0.0 2.0 10.0 1.0 9.0 0.0 5.0 0.0 3.0 0.0 7.0 10.0 3.0 3.0 7.0 0.0 5.0 10.0 6.0 3.0 10.0 10.0 7.0 6.0 2.0 10.0 9.0 7.0 4.0 6.0 8.0 3.0 9.0 1.0 3.0 4.0 10.0 6.0 5.0 8.0 8.0 10.0 5.0 4.0 8.0 8.0 2.0 5.0 2.0 0.0 1.0 1.0 0.0 3.0 8.0 1.0 10.0 10.0 9.0 7.0 7.0 8.0 8.0 5.0 7.0 4.0 6.0 0.0 3.0 4.0 3.0 6.0 7.0 0.0 7.0 8.0 10.0 4.0 3.0 6.0 -507.0 10.0 5.0 10.0 7.0 0.0 7.0 3.0 2.0 
1.0 0.0 6.0 10.0 3.0 1.0 2.0 7.0 0.0 9.0 0.0 5.0 5.0 7.0 4.0 8.0 5.0 7.0 2.0 3.0 8.0 8.0 7.0 5.0 1.0 9.0 1.0 9.0 9.0 2.0 8.0 0.0 0.0 6.0 5.0 1.0 2.0 9.0 2.0 1.0 10.0 8.0 2.0 5.0 9.0 7.0 7.0 6.0 7.0 9.0 5.0 1.0 7.0 10.0 3.0 5.0 6.0 5.0 2.0 10.0 8.0 4.0 2.0 8.0 5.0 9.0 8.0 2.0 2.0 3.0 3.0 9.0 4.0 4.0 7.0 3.0 4.0 7.0 1.0 3.0 6.0 6.0 10.0 2.0 8.0 1.0 8.0 6.0 5.0 10.0 -487.0 5.0 6.0 9.0 1.0 3.0 3.0 0.0 
2.0 0.0 1.0 1.0 9.0 8.0 1.0 6.0 4.0 10.0 1.0 10.0 0.0 9.0 6.0 7.0 9.0 7.0 7.0 2.0 10.0 9.0 3.0 0.0 10.0 10.0 0.0 9.0 7.0 8.0 4.0 1.0 1.0 0.0 3.0 6.0 0.0 10.0 3.0 10.0 6.0 4.0 5.0 2.0 2.0 10.0 7.0 0.0 10.0 7.0 2.0 0.0 5.0 6.0 4.0 3.0 2.0 2.0 4.0 9.0 8.0 6.0 1.0 2.0 6.0 8.0 8.0 4.0 7.0 5.0 4.0 6.0 4.0 3.0 5.0 10.0 10.0 10.0 10.0 6.0 2.0 3.0 6.0 6.0 6.0 2.0 7.0 0.0 2.0 5.0 5.0 -490.0 4.0 2.0 7.0 1.0 5.0 10.0 
10.0 0.0 3.0 10.0 0.0 8.0 3.0 0.0 5.0 9.0 1.0 9.0 9.0 0.0 5.0 7.0 0.0 1.0 10.0 8.0 9.0 8.0 5.0 5.0 2.0 10.0 10.0 9.0 6.0 1.0 4.0 0.0 4.0 8.0 0.0 2.0 6.0 0.0 10.0 7.0 5.0 1.0 0.0 3.0 4.0 0.0 3.0 10.0 9.0 3.0 8.0 4.0 7.0 6.0 7.0 5.0 10.0 9.0 9.0 0.0 10.0 0.0 2.0 6.0 10.0 4.0 9.0 5.0 9.0 0.0 4.0 8.0 7.0 7.0 0.0 6.0 6.0 2.0 4.0 1.0 10.0 3.0 4.0 10.0 6.0 6.0 0.0 2.0 9.0 10.0 6.0 4.0 -503.0 4.0 8.0 2.0 2.0 10.0 
1.0 0.0 8.0 5.0 9.0 8.0 6.0 5.0 4.0 10.0 0.0 6.0 2.0 5.0 8.0 9.0 0.0 2.0 4.0 5.0 7.0 10.0 8.0 2.0 0.0 0.0 8.0 8.0 3.0 8.0 4.0 2.0 10.0 9.0 8.0 7.0 6.0 8.0 9.0 2.0 8.0 9.0 1.0 9.0 5.0 10.0 0.0 5.0 10.0 9.0 10.0 3.0 3.0 8.0 5.0 7.0 2.0 6.0 3.0 7.0 9.0 1.0 9.0 4.0 4.0 0.0 6.0 3.0 5.0 4.0 5.0 1.0 0.0 6.0 8.0 6.0 9.0 2.0 8.0 4.0 3.0 4.0 1.0 0.0 2.0 7.0 9.0 6.0 3.0 7.0 9.0 2.0 4.0 -508.0 1.0 6.0 6.0 8.0 
8.0 0.0 9.0 7.0 7.0 1.0 7.0 3.0 2.0 8.0 9.0 9.0 3.0 5.0 0.0 3.0 4.0 2.0 3.0 0.0 9.0 5.0 9.0 9.0 1.0 6.0 10.0 5.0 3.0 0.0 5.0 2.0 7.0 8.0 3.0 0.0 6.0 2.0 0.0 6.0 10.0 5.0 9.0 7.0 6.0 7.0 4.0 7.0 7.0 10.0 7.0 10.0 3.0 2.0 0.0 6.0 3.0 10.0 9.0 7.0 10.0 0.0 3.0 4.0 3.0 4.0 6.0 3.0 9.0 9.0 9.0 9.0 9.0 6.0 3.0 1.0 7.0 8.0 8.0 5.0 3.0 2.0 6.0 1.0 9.0 2.0 10.0 9.0 5.0 0.0 1.0 7.0 8.0 1.0 -508.0 4.0 6.0 3.0 
7.0 0.0 4.0 3.0 6.0 10.0 6.0 2.0 8.0 10.0 10.0 9.0 6.0 9.0 9.0 5.0 6.0 5.0 3.0 1.0 0.0 6.0 8.0 1.0 7.0 1.0 9.0 0.0 8.0 8.0 7.0 8.0 1.0 3.0 5.0 8.0 1.0 8.0 10.0 0.0 2.0 10.0 1.0 10.0 5.0 8.0 7.0 8.0 6.0 6.0 10.0 2.0 10.0 5.0 9.0 9.0 7.0 1.0 8.0 5.0 1.0 9.0 10.0 4.0 10.0 2.0 5.0 0.0 8.0 6.0 8.0 8.0 4.0 0.0 8.0 1.0 0.0 1.0 2.0 6.0 1.0 6.0 7.0 7.0 0.0 0.0 1.0 5.0 2.0 7.0 3.0 1.0 2.0 6.0 4.0 -499.0 1.0 6.0 
4.0 0.0 0.0 8.0 4.0 10.0 7.0 10.0 4.0 0.0 7.0 9.0 6.0 4.0 1.0 8.0 9.0 1.0 4.0 10.0 6.0 9.0 5.0 8.0 6.0 2.0 7.0 5.0 3.0 9.0 0.0 4.0 6.0 0.0 4.0 10.0 6.0 5.0 2.0 9.0 4.0 6.0 6.0 7.0 10.0 5.0 8.0 2.0 9.0 0.0 0.0 3.0 1.0 5.0 0.0 1.0 6.0 1.0 9.0 1.0 1.0 7.0 9.0 9.0 8.0 8.0 3.0 1.0 4.0 10.0 7.0 3.0 1.0 2.0 0.0 5.0 2.0 5.0 6.0 4.0 7.0 6.0 9.0 9.0 1.0 7.0 8.0 4.0 3.0 3.0 3.0 5.0 2.0 6.0 6.0 1.0 -471.0 0.0 
7.0 0.0 3.0 4.0 8.0 9.0 5.0 1.0 2.0 1.0 10.0 9.0 1.0 9.0 8.0 3.0 4.0 9.0 9.0 0.0 2.0 1.0 8.0 9.0 1.0 10.0 2.0 0.0 3.0 2.0 9.0 10.0 9.0 0.0 10.0 9.0 7.0 9.0 5.0 1.0 5.0 8.0 6.0 6.0 4.0 2.0 10.0 3.0 10.0 5.0 5.0 0.0 3.0 3.0 3.0 10.0 3.0 0.0 7.0 9.0 10.0 1.0 8.0 9.0 3.0 6.0 0.0 10.0 3.0 3.0 4.0 5.0 10.0 9.0 4.0 7.0 7.0 3.0 5.0 6.0 5.0 0.0 1.0 1.0 1.0 9.0 10.0 0.0 0.0 2.0 0.0 10.0 10.0 8.0 3.0 6.0 0.0 -490.0 

